r = [
0,84,62,35,86,67,84,6,60,72,75,0
];
p = [
0,5,20,11,25,26,26,24,13,21,2,0
];
e = [
0,17,11,17,7,5,4,18,2,14,17,0
];
d = [
0,165,158,128,175,167,148,118,154,146,154,188
];
d_bar = [
0,168,168,134,188,180,161,130,161,157,155,188
];
w = [
0,5.666666667,1.1,2.833333333,0.538461538,0.384615385,0.307692308,1.5,0.285714286,1.272727273,17,0
];
